p cnf 350 1588
1 2 3 4 5 6 7 0
8 9 10 11 12 13 14 0
15 16 17 18 19 20 21 0
22 23 24 25 26 27 28 0
29 30 31 32 33 34 35 0
36 37 38 39 40 41 42 0
43 44 45 46 47 48 49 0
50 51 52 53 54 55 56 0
57 58 59 60 61 62 63 0
64 65 66 67 68 69 70 0
71 72 73 74 75 76 77 0
78 79 80 81 82 83 84 0
85 86 87 88 89 90 91 0
92 93 94 95 96 97 98 0
99 100 101 102 103 104 105 0
106 107 108 109 110 111 112 0
113 114 115 116 117 118 119 0
120 121 122 123 124 125 126 0
127 128 129 130 131 132 133 0
134 135 136 137 138 139 140 0
141 142 143 144 145 146 147 0
148 149 150 151 152 153 154 0
155 156 157 158 159 160 161 0
162 163 164 165 166 167 168 0
169 170 171 172 173 174 175 0
176 177 178 179 180 181 182 0
183 184 185 186 187 188 189 0
190 191 192 193 194 195 196 0
197 198 199 200 201 202 203 0
204 205 206 207 208 209 210 0
211 212 213 214 215 216 217 0
218 219 220 221 222 223 224 0
225 226 227 228 229 230 231 0
232 233 234 235 236 237 238 0
239 240 241 242 243 244 245 0
246 247 248 249 250 251 252 0
253 254 255 256 257 258 259 0
260 261 262 263 264 265 266 0
267 268 269 270 271 272 273 0
274 275 276 277 278 279 280 0
281 282 283 284 285 286 287 0
288 289 290 291 292 293 294 0
295 296 297 298 299 300 301 0
302 303 304 305 306 307 308 0
309 310 311 312 313 314 315 0
316 317 318 319 320 321 322 0
323 324 325 326 327 328 329 0
330 331 332 333 334 335 336 0
337 338 339 340 341 342 343 0
344 345 346 347 348 349 350 0
-1 -2 0
-1 -3 0
-1 -4 0
-1 -5 0
-1 -6 0
-1 -7 0
-2 -3 0
-2 -4 0
-2 -5 0
-2 -6 0
-2 -7 0
-3 -4 0
-3 -5 0
-3 -6 0
-3 -7 0
-4 -5 0
-4 -6 0
-4 -7 0
-5 -6 0
-5 -7 0
-6 -7 0
-8 -9 0
-8 -10 0
-8 -11 0
-8 -12 0
-8 -13 0
-8 -14 0
-9 -10 0
-9 -11 0
-9 -12 0
-9 -13 0
-9 -14 0
-10 -11 0
-10 -12 0
-10 -13 0
-10 -14 0
-11 -12 0
-11 -13 0
-11 -14 0
-12 -13 0
-12 -14 0
-13 -14 0
-15 -16 0
-15 -17 0
-15 -18 0
-15 -19 0
-15 -20 0
-15 -21 0
-16 -17 0
-16 -18 0
-16 -19 0
-16 -20 0
-16 -21 0
-17 -18 0
-17 -19 0
-17 -20 0
-17 -21 0
-18 -19 0
-18 -20 0
-18 -21 0
-19 -20 0
-19 -21 0
-20 -21 0
-22 -23 0
-22 -24 0
-22 -25 0
-22 -26 0
-22 -27 0
-22 -28 0
-23 -24 0
-23 -25 0
-23 -26 0
-23 -27 0
-23 -28 0
-24 -25 0
-24 -26 0
-24 -27 0
-24 -28 0
-25 -26 0
-25 -27 0
-25 -28 0
-26 -27 0
-26 -28 0
-27 -28 0
-29 -30 0
-29 -31 0
-29 -32 0
-29 -33 0
-29 -34 0
-29 -35 0
-30 -31 0
-30 -32 0
-30 -33 0
-30 -34 0
-30 -35 0
-31 -32 0
-31 -33 0
-31 -34 0
-31 -35 0
-32 -33 0
-32 -34 0
-32 -35 0
-33 -34 0
-33 -35 0
-34 -35 0
-36 -37 0
-36 -38 0
-36 -39 0
-36 -40 0
-36 -41 0
-36 -42 0
-37 -38 0
-37 -39 0
-37 -40 0
-37 -41 0
-37 -42 0
-38 -39 0
-38 -40 0
-38 -41 0
-38 -42 0
-39 -40 0
-39 -41 0
-39 -42 0
-40 -41 0
-40 -42 0
-41 -42 0
-43 -44 0
-43 -45 0
-43 -46 0
-43 -47 0
-43 -48 0
-43 -49 0
-44 -45 0
-44 -46 0
-44 -47 0
-44 -48 0
-44 -49 0
-45 -46 0
-45 -47 0
-45 -48 0
-45 -49 0
-46 -47 0
-46 -48 0
-46 -49 0
-47 -48 0
-47 -49 0
-48 -49 0
-50 -51 0
-50 -52 0
-50 -53 0
-50 -54 0
-50 -55 0
-50 -56 0
-51 -52 0
-51 -53 0
-51 -54 0
-51 -55 0
-51 -56 0
-52 -53 0
-52 -54 0
-52 -55 0
-52 -56 0
-53 -54 0
-53 -55 0
-53 -56 0
-54 -55 0
-54 -56 0
-55 -56 0
-57 -58 0
-57 -59 0
-57 -60 0
-57 -61 0
-57 -62 0
-57 -63 0
-58 -59 0
-58 -60 0
-58 -61 0
-58 -62 0
-58 -63 0
-59 -60 0
-59 -61 0
-59 -62 0
-59 -63 0
-60 -61 0
-60 -62 0
-60 -63 0
-61 -62 0
-61 -63 0
-62 -63 0
-64 -65 0
-64 -66 0
-64 -67 0
-64 -68 0
-64 -69 0
-64 -70 0
-65 -66 0
-65 -67 0
-65 -68 0
-65 -69 0
-65 -70 0
-66 -67 0
-66 -68 0
-66 -69 0
-66 -70 0
-67 -68 0
-67 -69 0
-67 -70 0
-68 -69 0
-68 -70 0
-69 -70 0
-71 -72 0
-71 -73 0
-71 -74 0
-71 -75 0
-71 -76 0
-71 -77 0
-72 -73 0
-72 -74 0
-72 -75 0
-72 -76 0
-72 -77 0
-73 -74 0
-73 -75 0
-73 -76 0
-73 -77 0
-74 -75 0
-74 -76 0
-74 -77 0
-75 -76 0
-75 -77 0
-76 -77 0
-78 -79 0
-78 -80 0
-78 -81 0
-78 -82 0
-78 -83 0
-78 -84 0
-79 -80 0
-79 -81 0
-79 -82 0
-79 -83 0
-79 -84 0
-80 -81 0
-80 -82 0
-80 -83 0
-80 -84 0
-81 -82 0
-81 -83 0
-81 -84 0
-82 -83 0
-82 -84 0
-83 -84 0
-85 -86 0
-85 -87 0
-85 -88 0
-85 -89 0
-85 -90 0
-85 -91 0
-86 -87 0
-86 -88 0
-86 -89 0
-86 -90 0
-86 -91 0
-87 -88 0
-87 -89 0
-87 -90 0
-87 -91 0
-88 -89 0
-88 -90 0
-88 -91 0
-89 -90 0
-89 -91 0
-90 -91 0
-92 -93 0
-92 -94 0
-92 -95 0
-92 -96 0
-92 -97 0
-92 -98 0
-93 -94 0
-93 -95 0
-93 -96 0
-93 -97 0
-93 -98 0
-94 -95 0
-94 -96 0
-94 -97 0
-94 -98 0
-95 -96 0
-95 -97 0
-95 -98 0
-96 -97 0
-96 -98 0
-97 -98 0
-99 -100 0
-99 -101 0
-99 -102 0
-99 -103 0
-99 -104 0
-99 -105 0
-100 -101 0
-100 -102 0
-100 -103 0
-100 -104 0
-100 -105 0
-101 -102 0
-101 -103 0
-101 -104 0
-101 -105 0
-102 -103 0
-102 -104 0
-102 -105 0
-103 -104 0
-103 -105 0
-104 -105 0
-106 -107 0
-106 -108 0
-106 -109 0
-106 -110 0
-106 -111 0
-106 -112 0
-107 -108 0
-107 -109 0
-107 -110 0
-107 -111 0
-107 -112 0
-108 -109 0
-108 -110 0
-108 -111 0
-108 -112 0
-109 -110 0
-109 -111 0
-109 -112 0
-110 -111 0
-110 -112 0
-111 -112 0
-113 -114 0
-113 -115 0
-113 -116 0
-113 -117 0
-113 -118 0
-113 -119 0
-114 -115 0
-114 -116 0
-114 -117 0
-114 -118 0
-114 -119 0
-115 -116 0
-115 -117 0
-115 -118 0
-115 -119 0
-116 -117 0
-116 -118 0
-116 -119 0
-117 -118 0
-117 -119 0
-118 -119 0
-120 -121 0
-120 -122 0
-120 -123 0
-120 -124 0
-120 -125 0
-120 -126 0
-121 -122 0
-121 -123 0
-121 -124 0
-121 -125 0
-121 -126 0
-122 -123 0
-122 -124 0
-122 -125 0
-122 -126 0
-123 -124 0
-123 -125 0
-123 -126 0
-124 -125 0
-124 -126 0
-125 -126 0
-127 -128 0
-127 -129 0
-127 -130 0
-127 -131 0
-127 -132 0
-127 -133 0
-128 -129 0
-128 -130 0
-128 -131 0
-128 -132 0
-128 -133 0
-129 -130 0
-129 -131 0
-129 -132 0
-129 -133 0
-130 -131 0
-130 -132 0
-130 -133 0
-131 -132 0
-131 -133 0
-132 -133 0
-134 -135 0
-134 -136 0
-134 -137 0
-134 -138 0
-134 -139 0
-134 -140 0
-135 -136 0
-135 -137 0
-135 -138 0
-135 -139 0
-135 -140 0
-136 -137 0
-136 -138 0
-136 -139 0
-136 -140 0
-137 -138 0
-137 -139 0
-137 -140 0
-138 -139 0
-138 -140 0
-139 -140 0
-141 -142 0
-141 -143 0
-141 -144 0
-141 -145 0
-141 -146 0
-141 -147 0
-142 -143 0
-142 -144 0
-142 -145 0
-142 -146 0
-142 -147 0
-143 -144 0
-143 -145 0
-143 -146 0
-143 -147 0
-144 -145 0
-144 -146 0
-144 -147 0
-145 -146 0
-145 -147 0
-146 -147 0
-148 -149 0
-148 -150 0
-148 -151 0
-148 -152 0
-148 -153 0
-148 -154 0
-149 -150 0
-149 -151 0
-149 -152 0
-149 -153 0
-149 -154 0
-150 -151 0
-150 -152 0
-150 -153 0
-150 -154 0
-151 -152 0
-151 -153 0
-151 -154 0
-152 -153 0
-152 -154 0
-153 -154 0
-155 -156 0
-155 -157 0
-155 -158 0
-155 -159 0
-155 -160 0
-155 -161 0
-156 -157 0
-156 -158 0
-156 -159 0
-156 -160 0
-156 -161 0
-157 -158 0
-157 -159 0
-157 -160 0
-157 -161 0
-158 -159 0
-158 -160 0
-158 -161 0
-159 -160 0
-159 -161 0
-160 -161 0
-162 -163 0
-162 -164 0
-162 -165 0
-162 -166 0
-162 -167 0
-162 -168 0
-163 -164 0
-163 -165 0
-163 -166 0
-163 -167 0
-163 -168 0
-164 -165 0
-164 -166 0
-164 -167 0
-164 -168 0
-165 -166 0
-165 -167 0
-165 -168 0
-166 -167 0
-166 -168 0
-167 -168 0
-169 -170 0
-169 -171 0
-169 -172 0
-169 -173 0
-169 -174 0
-169 -175 0
-170 -171 0
-170 -172 0
-170 -173 0
-170 -174 0
-170 -175 0
-171 -172 0
-171 -173 0
-171 -174 0
-171 -175 0
-172 -173 0
-172 -174 0
-172 -175 0
-173 -174 0
-173 -175 0
-174 -175 0
-176 -177 0
-176 -178 0
-176 -179 0
-176 -180 0
-176 -181 0
-176 -182 0
-177 -178 0
-177 -179 0
-177 -180 0
-177 -181 0
-177 -182 0
-178 -179 0
-178 -180 0
-178 -181 0
-178 -182 0
-179 -180 0
-179 -181 0
-179 -182 0
-180 -181 0
-180 -182 0
-181 -182 0
-183 -184 0
-183 -185 0
-183 -186 0
-183 -187 0
-183 -188 0
-183 -189 0
-184 -185 0
-184 -186 0
-184 -187 0
-184 -188 0
-184 -189 0
-185 -186 0
-185 -187 0
-185 -188 0
-185 -189 0
-186 -187 0
-186 -188 0
-186 -189 0
-187 -188 0
-187 -189 0
-188 -189 0
-190 -191 0
-190 -192 0
-190 -193 0
-190 -194 0
-190 -195 0
-190 -196 0
-191 -192 0
-191 -193 0
-191 -194 0
-191 -195 0
-191 -196 0
-192 -193 0
-192 -194 0
-192 -195 0
-192 -196 0
-193 -194 0
-193 -195 0
-193 -196 0
-194 -195 0
-194 -196 0
-195 -196 0
-197 -198 0
-197 -199 0
-197 -200 0
-197 -201 0
-197 -202 0
-197 -203 0
-198 -199 0
-198 -200 0
-198 -201 0
-198 -202 0
-198 -203 0
-199 -200 0
-199 -201 0
-199 -202 0
-199 -203 0
-200 -201 0
-200 -202 0
-200 -203 0
-201 -202 0
-201 -203 0
-202 -203 0
-204 -205 0
-204 -206 0
-204 -207 0
-204 -208 0
-204 -209 0
-204 -210 0
-205 -206 0
-205 -207 0
-205 -208 0
-205 -209 0
-205 -210 0
-206 -207 0
-206 -208 0
-206 -209 0
-206 -210 0
-207 -208 0
-207 -209 0
-207 -210 0
-208 -209 0
-208 -210 0
-209 -210 0
-211 -212 0
-211 -213 0
-211 -214 0
-211 -215 0
-211 -216 0
-211 -217 0
-212 -213 0
-212 -214 0
-212 -215 0
-212 -216 0
-212 -217 0
-213 -214 0
-213 -215 0
-213 -216 0
-213 -217 0
-214 -215 0
-214 -216 0
-214 -217 0
-215 -216 0
-215 -217 0
-216 -217 0
-218 -219 0
-218 -220 0
-218 -221 0
-218 -222 0
-218 -223 0
-218 -224 0
-219 -220 0
-219 -221 0
-219 -222 0
-219 -223 0
-219 -224 0
-220 -221 0
-220 -222 0
-220 -223 0
-220 -224 0
-221 -222 0
-221 -223 0
-221 -224 0
-222 -223 0
-222 -224 0
-223 -224 0
-225 -226 0
-225 -227 0
-225 -228 0
-225 -229 0
-225 -230 0
-225 -231 0
-226 -227 0
-226 -228 0
-226 -229 0
-226 -230 0
-226 -231 0
-227 -228 0
-227 -229 0
-227 -230 0
-227 -231 0
-228 -229 0
-228 -230 0
-228 -231 0
-229 -230 0
-229 -231 0
-230 -231 0
-232 -233 0
-232 -234 0
-232 -235 0
-232 -236 0
-232 -237 0
-232 -238 0
-233 -234 0
-233 -235 0
-233 -236 0
-233 -237 0
-233 -238 0
-234 -235 0
-234 -236 0
-234 -237 0
-234 -238 0
-235 -236 0
-235 -237 0
-235 -238 0
-236 -237 0
-236 -238 0
-237 -238 0
-239 -240 0
-239 -241 0
-239 -242 0
-239 -243 0
-239 -244 0
-239 -245 0
-240 -241 0
-240 -242 0
-240 -243 0
-240 -244 0
-240 -245 0
-241 -242 0
-241 -243 0
-241 -244 0
-241 -245 0
-242 -243 0
-242 -244 0
-242 -245 0
-243 -244 0
-243 -245 0
-244 -245 0
-246 -247 0
-246 -248 0
-246 -249 0
-246 -250 0
-246 -251 0
-246 -252 0
-247 -248 0
-247 -249 0
-247 -250 0
-247 -251 0
-247 -252 0
-248 -249 0
-248 -250 0
-248 -251 0
-248 -252 0
-249 -250 0
-249 -251 0
-249 -252 0
-250 -251 0
-250 -252 0
-251 -252 0
-253 -254 0
-253 -255 0
-253 -256 0
-253 -257 0
-253 -258 0
-253 -259 0
-254 -255 0
-254 -256 0
-254 -257 0
-254 -258 0
-254 -259 0
-255 -256 0
-255 -257 0
-255 -258 0
-255 -259 0
-256 -257 0
-256 -258 0
-256 -259 0
-257 -258 0
-257 -259 0
-258 -259 0
-260 -261 0
-260 -262 0
-260 -263 0
-260 -264 0
-260 -265 0
-260 -266 0
-261 -262 0
-261 -263 0
-261 -264 0
-261 -265 0
-261 -266 0
-262 -263 0
-262 -264 0
-262 -265 0
-262 -266 0
-263 -264 0
-263 -265 0
-263 -266 0
-264 -265 0
-264 -266 0
-265 -266 0
-267 -268 0
-267 -269 0
-267 -270 0
-267 -271 0
-267 -272 0
-267 -273 0
-268 -269 0
-268 -270 0
-268 -271 0
-268 -272 0
-268 -273 0
-269 -270 0
-269 -271 0
-269 -272 0
-269 -273 0
-270 -271 0
-270 -272 0
-270 -273 0
-271 -272 0
-271 -273 0
-272 -273 0
-274 -275 0
-274 -276 0
-274 -277 0
-274 -278 0
-274 -279 0
-274 -280 0
-275 -276 0
-275 -277 0
-275 -278 0
-275 -279 0
-275 -280 0
-276 -277 0
-276 -278 0
-276 -279 0
-276 -280 0
-277 -278 0
-277 -279 0
-277 -280 0
-278 -279 0
-278 -280 0
-279 -280 0
-281 -282 0
-281 -283 0
-281 -284 0
-281 -285 0
-281 -286 0
-281 -287 0
-282 -283 0
-282 -284 0
-282 -285 0
-282 -286 0
-282 -287 0
-283 -284 0
-283 -285 0
-283 -286 0
-283 -287 0
-284 -285 0
-284 -286 0
-284 -287 0
-285 -286 0
-285 -287 0
-286 -287 0
-288 -289 0
-288 -290 0
-288 -291 0
-288 -292 0
-288 -293 0
-288 -294 0
-289 -290 0
-289 -291 0
-289 -292 0
-289 -293 0
-289 -294 0
-290 -291 0
-290 -292 0
-290 -293 0
-290 -294 0
-291 -292 0
-291 -293 0
-291 -294 0
-292 -293 0
-292 -294 0
-293 -294 0
-295 -296 0
-295 -297 0
-295 -298 0
-295 -299 0
-295 -300 0
-295 -301 0
-296 -297 0
-296 -298 0
-296 -299 0
-296 -300 0
-296 -301 0
-297 -298 0
-297 -299 0
-297 -300 0
-297 -301 0
-298 -299 0
-298 -300 0
-298 -301 0
-299 -300 0
-299 -301 0
-300 -301 0
-302 -303 0
-302 -304 0
-302 -305 0
-302 -306 0
-302 -307 0
-302 -308 0
-303 -304 0
-303 -305 0
-303 -306 0
-303 -307 0
-303 -308 0
-304 -305 0
-304 -306 0
-304 -307 0
-304 -308 0
-305 -306 0
-305 -307 0
-305 -308 0
-306 -307 0
-306 -308 0
-307 -308 0
-309 -310 0
-309 -311 0
-309 -312 0
-309 -313 0
-309 -314 0
-309 -315 0
-310 -311 0
-310 -312 0
-310 -313 0
-310 -314 0
-310 -315 0
-311 -312 0
-311 -313 0
-311 -314 0
-311 -315 0
-312 -313 0
-312 -314 0
-312 -315 0
-313 -314 0
-313 -315 0
-314 -315 0
-316 -317 0
-316 -318 0
-316 -319 0
-316 -320 0
-316 -321 0
-316 -322 0
-317 -318 0
-317 -319 0
-317 -320 0
-317 -321 0
-317 -322 0
-318 -319 0
-318 -320 0
-318 -321 0
-318 -322 0
-319 -320 0
-319 -321 0
-319 -322 0
-320 -321 0
-320 -322 0
-321 -322 0
-323 -324 0
-323 -325 0
-323 -326 0
-323 -327 0
-323 -328 0
-323 -329 0
-324 -325 0
-324 -326 0
-324 -327 0
-324 -328 0
-324 -329 0
-325 -326 0
-325 -327 0
-325 -328 0
-325 -329 0
-326 -327 0
-326 -328 0
-326 -329 0
-327 -328 0
-327 -329 0
-328 -329 0
-330 -331 0
-330 -332 0
-330 -333 0
-330 -334 0
-330 -335 0
-330 -336 0
-331 -332 0
-331 -333 0
-331 -334 0
-331 -335 0
-331 -336 0
-332 -333 0
-332 -334 0
-332 -335 0
-332 -336 0
-333 -334 0
-333 -335 0
-333 -336 0
-334 -335 0
-334 -336 0
-335 -336 0
-337 -338 0
-337 -339 0
-337 -340 0
-337 -341 0
-337 -342 0
-337 -343 0
-338 -339 0
-338 -340 0
-338 -341 0
-338 -342 0
-338 -343 0
-339 -340 0
-339 -341 0
-339 -342 0
-339 -343 0
-340 -341 0
-340 -342 0
-340 -343 0
-341 -342 0
-341 -343 0
-342 -343 0
-344 -345 0
-344 -346 0
-344 -347 0
-344 -348 0
-344 -349 0
-344 -350 0
-345 -346 0
-345 -347 0
-345 -348 0
-345 -349 0
-345 -350 0
-346 -347 0
-346 -348 0
-346 -349 0
-346 -350 0
-347 -348 0
-347 -349 0
-347 -350 0
-348 -349 0
-348 -350 0
-349 -350 0
-3 -145 0
-6 -147 0
-2 -143 0
-6 -143 0
-1 -244 0
-1 -240 0
-2 -243 0
-6 -243 0
-12 -51 0
-10 -55 0
-12 -50 0
-9 -50 0
-13 -117 0
-14 -116 0
-10 -118 0
-11 -115 0
-13 -126 0
-11 -121 0
-9 -120 0
-10 -120 0
-13 -127 0
-10 -127 0
-11 -128 0
-11 -133 0
-11 -135 0
-10 -136 0
-14 -134 0
-9 -137 0
-13 -147 0
-8 -142 0
-11 -142 0
-13 -142 0
-8 -255 0
-8 -253 0
-12 -253 0
-12 -255 0
-12 -345 0
-13 -349 0
-12 -349 0
-10 -345 0
-16 -28 0
-21 -28 0
-15 -28 0
-17 -24 0
-20 -32 0
-20 -31 0
-18 -32 0
-20 -29 0
-21 -165 0
-20 -166 0
-19 -167 0
-19 -168 0
-21 -203 0
-17 -201 0
-20 -200 0
-20 -198 0
-15 -290 0
-15 -288 0
-19 -292 0
-15 -291 0
-19 -301 0
-21 -300 0
-16 -298 0
-16 -300 0
-25 -57 0
-28 -63 0
-23 -63 0
-25 -60 0
-25 -181 0
-26 -179 0
-22 -177 0
-25 -176 0
-23 -227 0
-23 -225 0
-22 -231 0
-26 -228 0
-24 -276 0
-28 -277 0
-22 -279 0
-23 -278 0
-32 -96 0
-35 -97 0
-32 -93 0
-33 -96 0
-29 -123 0
-34 -120 0
-35 -125 0
-34 -126 0
-29 -242 0
-32 -240 0
-35 -241 0
-33 -241 0
-36 -81 0
-42 -82 0
-39 -82 0
-40 -80 0
-41 -168 0
-40 -164 0
-36 -168 0
-36 -167 0
-42 -177 0
-37 -176 0
-38 -176 0
-37 -178 0
-43 -77 0
-46 -76 0
-44 -73 0
-45 -75 0
-45 -138 0
-47 -134 0
-48 -134 0
-48 -138 0
-49 -250 0
-45 -251 0
-45 -246 0
-43 -249 0
-43 -343 0
-48 -343 0
-46 -342 0
-49 -341 0
-52 -105 0
-53 -99 0
-51 -105 0
-53 -100 0
-52 -193 0
-52 -192 0
-50 -194 0
-53 -196 0
-51 -245 0
-54 -244 0
-52 -242 0
-54 -242 0
-51 -321 0
-50 -319 0
-56 -317 0
-51 -316 0
-50 -326 0
-55 -325 0
-53 -324 0
-56 -329 0
-62 -185 0
-57 -185 0
-61 -184 0
-59 -186 0
-60 -223 0
-60 -219 0
-59 -218 0
-63 -222 0
-59 -262 0
-62 -260 0
-61 -264 0
-61 -263 0
-62 -275 0
-61 -280 0
-63 -279 0
-59 -280 0
-61 -306 0
-59 -307 0
-60 -303 0
-58 -305 0
-68 -168 0
-65 -162 0
-65 -166 0
-70 -167 0
-66 -208 0
-69 -206 0
-66 -209 0
-67 -204 0
-64 -226 0
-66 -226 0
-69 -228 0
-70 -226 0
-66 -287 0
-65 -287 0
-66 -281 0
-64 -286 0
-72 -189 0
-75 -188 0
-76 -184 0
-76 -183 0
-72 -272 0
-74 -272 0
-76 -268 0
-77 -273 0
-79 -123 0
-78 -124 0
-82 -126 0
-82 -122 0
-84 -177 0
-80 -176 0
-84 -179 0
-84 -182 0
-83 -348 0
-82 -348 0
-84 -349 0
-82 -350 0
-89 -139 0
-90 -137 0
-91 -135 0
-89 -136 0
-90 -222 0
-90 -220 0
-89 -222 0
-88 -222 0
-91 -252 0
-90 -248 0
-87 -251 0
-89 -252 0
-88 -254 0
-85 -259 0
-90 -255 0
-87 -254 0
-91 -279 0
-86 -276 0
-85 -275 0
-85 -278 0
-89 -302 0
-91 -308 0
-87 -302 0
-85 -304 0
-88 -331 0
-87 -334 0
-86 -334 0
-85 -331 0
-90 -338 0
-87 -338 0
-89 -340 0
-88 -337 0
-94 -126 0
-97 -125 0
-92 -121 0
-96 -121 0
-92 -192 0
-96 -195 0
-95 -192 0
-94 -193 0
-94 -305 0
-95 -307 0
-92 -307 0
-98 -308 0
-96 -339 0
-96 -343 0
-93 -339 0
-98 -343 0
-104 -155 0
-104 -161 0
-104 -158 0
-103 -157 0
-105 -257 0
-100 -253 0
-101 -256 0
-101 -255 0
-103 -266 0
-104 -264 0
-102 -262 0
-101 -263 0
-112 -178 0
-111 -177 0
-112 -181 0
-110 -176 0
-111 -256 0
-107 -253 0
-106 -254 0
-109 -256 0
-108 -295 0
-108 -300 0
-111 -300 0
-108 -297 0
-109 -312 0
-109 -313 0
-110 -313 0
-111 -309 0
-111 -321 0
-110 -318 0
-108 -320 0
-108 -319 0
-111 -350 0
-107 -348 0
-108 -347 0
-111 -349 0
-116 -125 0
-114 -126 0
-116 -126 0
-118 -122 0
-113 -154 0
-117 -153 0
-118 -153 0
-119 -148 0
-113 -219 0
-119 -224 0
-117 -221 0
-116 -219 0
-113 -252 0
-118 -248 0
-118 -251 0
-114 -251 0
-124 -199 0
-125 -203 0
-125 -197 0
-124 -203 0
-121 -237 0
-126 -232 0
-126 -236 0
-125 -236 0
-121 -244 0
-121 -243 0
-123 -240 0
-122 -242 0
-126 -273 0
-126 -269 0
-122 -272 0
-120 -272 0
-124 -323 0
-125 -323 0
-124 -324 0
-123 -328 0
-132 -185 0
-132 -183 0
-129 -185 0
-130 -185 0
-128 -216 0
-128 -217 0
-133 -215 0
-131 -213 0
-127 -320 0
-133 -316 0
-132 -319 0
-131 -320 0
-132 -341 0
-128 -343 0
-127 -343 0
-129 -343 0
-135 -201 0
-140 -199 0
-138 -201 0
-136 -202 0
-147 -180 0
-145 -181 0
-145 -180 0
-144 -179 0
-145 -199 0
-142 -202 0
-144 -201 0
-142 -203 0
-154 -224 0
-149 -223 0
-152 -218 0
-153 -219 0
-151 -350 0
-152 -344 0
-151 -348 0
-154 -347 0
-160 -178 0
-158 -181 0
-156 -180 0
-161 -182 0
-156 -263 0
-161 -265 0
-159 -266 0
-161 -263 0
-164 -303 0
-165 -303 0
-166 -308 0
-162 -303 0
-167 -320 0
-162 -317 0
-162 -318 0
-162 -320 0
-175 -215 0
-175 -211 0
-174 -217 0
-170 -217 0
-173 -244 0
-173 -245 0
-169 -245 0
-171 -245 0
-176 -299 0
-177 -298 0
-182 -296 0
-178 -297 0
-178 -311 0
-176 -313 0
-181 -315 0
-177 -309 0
-185 -252 0
-186 -247 0
-184 -246 0
-189 -251 0
-187 -322 0
-186 -322 0
-185 -322 0
-189 -322 0
-199 -208 0
-199 -207 0
-202 -209 0
-202 -208 0
-199 -279 0
-202 -275 0
-203 -280 0
-201 -280 0
-209 -243 0
-210 -239 0
-207 -243 0
-208 -240 0
-205 -276 0
-207 -277 0
-210 -275 0
-209 -275 0
-217 -229 0
-212 -225 0
-212 -228 0
-213 -228 0
-215 -236 0
-215 -238 0
-213 -235 0
-211 -232 0
-211 -277 0
-211 -274 0
-216 -280 0
-213 -274 0
-214 -281 0
-211 -282 0
-214 -282 0
-217 -285 0
-213 -298 0
-214 -301 0
-211 -301 0
-214 -299 0
-211 -320 0
-211 -316 0
-213 -319 0
-211 -321 0
-222 -265 0
-219 -266 0
-218 -264 0
-219 -265 0
-220 -343 0
-222 -337 0
-222 -339 0
-223 -342 0
-238 -257 0
-234 -255 0
-232 -256 0
-236 -255 0
-232 -283 0
-238 -282 0
-232 -282 0
-233 -283 0
-238 -340 0
-236 -342 0
-235 -340 0
-233 -340 0
-235 -346 0
-235 -344 0
-238 -344 0
-233 -346 0
-242 -286 0
-243 -282 0
-242 -281 0
-241 -286 0
-252 -284 0
-246 -287 0
-252 -282 0
-247 -284 0
-252 -288 0
-251 -294 0
-251 -292 0
-248 -293 0
-255 -307 0
-256 -308 0
-253 -305 0
-254 -302 0
-262 -303 0
-264 -303 0
-265 -303 0
-266 -302 0
-279 -298 0
-276 -299 0
-277 -297 0
-280 -300 0
-274 -350 0
-275 -348 0
-276 -346 0
-280 -344 0
-313 -325 0
-312 -326 0
-313 -327 0
-313 -324 0
